c ---- [ banner ] ------------------------------------------------------------
c
c Kissat SAT Solver
c 
c Copyright (c) 2021-2024 Armin Biere University of Freiburg
c Copyright (c) 2019-2021 Armin Biere Johannes Kepler University Linz
c 
c Version 4.0.2 unknown
c gcc (Ubuntu 11.4.0-1ubuntu1~22.04) 11.4.0 -W -Wall -O3 -DNDEBUG
c Fri Feb 21 23:10:08 UTC 2025 Linux fv-az973-954 6.5.0-1025-azure x86_64
c
c ---- [ parsing ] -----------------------------------------------------------
c
c opened and reading DIMACS file:
c
c   instances/001304ba2e4e8adbd179aa3d8acb697b-x9-03065.sat.sanitized.cnf
c
c parsed 'p cnf 150 1347' header
c closing input after reading 15216 bytes (15 KB)
c finished parsing after 0.00 seconds
c
c ---- [ solving ] -----------------------------------------------------------
c
c seconds switched rate     size/glue tier1  binary     remaining
c        MB reductions conflicts size  tier2   irredundant
c         level restarts redundant glue  trail      variables
c
c *  0.00  4 0 0 0  0 0   0   0 0.0 0 0 0 0 0% 1227 120 150 100%
c (  0.00  4 0 0 0  0 0   0   0 0.0 0 0 0 0 0% 1227 120 150 100%
c .  0.00  4 0 0 0  0 0   0   0 0.0 0 0 0 0 0% 1227 120 150 100%
c f  0.01  4 0 0 0  0 0   0   0 0.0 0 0 0 0 0% 537 120 183 122%
c e  0.01  4 0 0 0  0 0   0   0 0.0 0 0 0 0 0% 540 120 180 120%
c )  0.01  4 0 0 0  0 0   0   0 0.0 0 0 0 0 0% 540 120 180 120%
c {  0.01  4 0 0 0  0 0   0   0 0.0 0 0 2 6 0% 540 120 180 120%
c }  0.01  4 6 0 0  0 1 199 143 1.9 8 4 3 3 74% 544 120 180 120%
c 1  0.01  4 6 0 0  0 1 199 143 1.9 8 4 3 3 74% 544 120 180 120%
c
c ---- [ result ] ------------------------------------------------------------
c
s SATISFIABLE
v -1 -2 -3 4 -5 -6 7 -8 -9 -10 -11 -12 13 -14 -15 -16 17 -18 -19 -20 -21 -22
v -23 -24 -25 -26 27 28 -29 -30 -31 -32 -33 -34 -35 -36 -37 38 -39 -40 41 -42
v -43 -44 -45 -46 -47 -48 -49 -50 -51 52 -53 -54 -55 -56 -57 58 -59 -60 61 -62
v -63 64 -65 -66 -67 68 -69 -70 -71 72 -73 -74 -75 -76 -77 -78 -79 80 -81 -82
v 83 -84 -85 -86 -87 -88 -89 90 -91 -92 -93 -94 -95 -96 -97 -98 99 -100 -101
v 102 -103 -104 105 -106 -107 -108 -109 -110 -111 -112 113 -114 115 -116 -117
v -118 -119 -120 -121 -122 123 -124 125 126 -127 128 -129 -130 -131 -132 -133
v -134 -135 136 -137 -138 -139 -140 -141 142 143 -144 -145 -146 -147 -148 -149
v 150 0
c
c ---- [ profiling ] ---------------------------------------------------------
c
c           0.01   78.95 %  preprocess
c           0.01   76.94 %  probe
c           0.01   70.72 %  sweep
c           0.00   10.45 %  search
c           0.00   10.35 %  focused
c           0.00    8.06 %  parse
c           0.00    2.91 %  factor
c           0.00    2.65 %  congruence
c           0.00    1.43 %  fastel
c           0.00    1.06 %  lucky
c           0.00    0.29 %  backbone
c           0.00    0.28 %  substitute
c           0.00    0.00 %  simplify
c =============================================
c           0.01  100.00 %  total
c
c ---- [ statistics ] --------------------------------------------------------
c
c conflicts:                              199            14177.83 per second
c decisions:                              254                1.28 per conflict
c eliminated:                               3                2 %  variables
c factored:                                33               22 %  variables
c fast_eliminated:                          3              100 %  eliminated
c propagations:                         13376           952978    per second
c switched:                                 0                0    interval
c
c ---- [ glue usage ] --------------------------------------------------------
c
c focused glue 3 used 85 clauses 25.45% accumulated 59.28% tier1
c focused glue 4 used 61 clauses 18.26% accumulated 77.54%
c focused glue 5 used 41 clauses 12.28% accumulated 89.82% tier2
c
c ---- [ resources ] ---------------------------------------------------------
c
c maximum-resident-set-size:          4063232 bytes          4 MB
c process-time:                                              0.01 seconds
c
c ---- [ shutting down ] -----------------------------------------------------
c
c exit 10
